c Generated map
c Size: 15 * 15, weights in range: 1 to 10, walls: True, with ratio 0.05
c dim 1 of 4
c
p sp 225 379
c graph contains 225 nodes and 379 arcs
c
a 1 16 6
a 16 1 6
a 1 2 8
a 2 1 8
a 2 17 3
a 17 2 3
a 2 3 3
a 3 2 3
a 3 18 7
a 18 3 7
a 3 4 4
a 4 3 4
a 4 19 6
a 19 4 6
a 4 5 1
a 5 4 1
a 5 6 8
a 6 5 8
a 6 21 7
a 21 6 7
a 6 7 9
a 7 6 9
a 7 22 7
a 22 7 7
a 7 8 9
a 8 7 9
a 8 23 7
a 23 8 7
a 8 9 6
a 9 8 6
a 9 24 5
a 24 9 5
a 9 10 6
a 10 9 6
a 10 25 9
a 25 10 9
a 10 11 1
a 11 10 1
a 11 26 2
a 26 11 2
a 11 12 6
a 12 11 6
a 12 27 7
a 27 12 7
a 12 13 8
a 13 12 8
a 13 14 9
a 14 13 9
a 14 29 8
a 29 14 8
a 14 15 9
a 15 14 9
a 15 30 10
a 30 15 10
a 16 31 5
a 31 16 5
a 16 17 8
a 17 16 8
a 17 32 8
a 32 17 8
a 17 18 4
a 18 17 4
a 18 33 3
a 33 18 3
a 18 19 9
a 19 18 9
a 19 34 1
a 34 19 1
a 21 36 10
a 36 21 10
a 21 22 9
a 22 21 9
a 22 37 1
a 37 22 1
a 22 23 7
a 23 22 7
a 23 38 9
a 38 23 9
a 23 24 4
a 24 23 4
a 24 39 7
a 39 24 7
a 24 25 5
a 25 24 5
a 25 40 2
a 40 25 2
a 25 26 6
a 26 25 6
a 26 41 10
a 41 26 10
a 26 27 7
a 27 26 7
a 27 42 10
a 42 27 10
a 29 44 6
a 44 29 6
a 29 30 10
a 30 29 10
a 30 45 5
a 45 30 5
a 31 46 4
a 46 31 4
a 31 32 10
a 32 31 10
a 32 47 1
a 47 32 1
a 32 33 10
a 33 32 10
a 33 48 2
a 48 33 2
a 33 34 7
a 34 33 7
a 34 49 9
a 49 34 9
a 34 35 3
a 35 34 3
a 35 50 3
a 50 35 3
a 35 36 6
a 36 35 6
a 36 51 5
a 51 36 5
a 36 37 3
a 37 36 3
a 37 52 9
a 52 37 9
a 37 38 3
a 38 37 3
a 38 53 10
a 53 38 10
a 38 39 5
a 39 38 5
a 39 54 5
a 54 39 5
a 39 40 1
a 40 39 1
a 40 55 9
a 55 40 9
a 40 41 4
a 41 40 4
a 41 56 9
a 56 41 9
a 41 42 6
a 42 41 6
a 42 57 10
a 57 42 10
a 44 59 7
a 59 44 7
a 44 45 3
a 45 44 3
a 45 60 5
a 60 45 5
a 46 61 8
a 61 46 8
a 46 47 5
a 47 46 5
a 47 62 4
a 62 47 4
a 47 48 8
a 48 47 8
a 48 63 2
a 63 48 2
a 48 49 10
a 49 48 10
a 49 50 2
a 50 49 2
a 50 65 7
a 65 50 7
a 50 51 5
a 51 50 5
a 51 66 1
a 66 51 1
a 51 52 1
a 52 51 1
a 52 67 2
a 67 52 2
a 52 53 9
a 53 52 9
a 53 68 4
a 68 53 4
a 53 54 3
a 54 53 3
a 54 69 9
a 69 54 9
a 54 55 1
a 55 54 1
a 55 70 6
a 70 55 6
a 55 56 9
a 56 55 9
a 56 71 10
a 71 56 10
a 56 57 7
a 57 56 7
a 57 72 2
a 72 57 2
a 57 58 4
a 58 57 4
a 58 73 6
a 73 58 6
a 58 59 5
a 59 58 5
a 59 74 2
a 74 59 2
a 59 60 6
a 60 59 6
a 60 75 6
a 75 60 6
a 61 76 9
a 76 61 9
a 61 62 10
a 62 61 10
a 62 77 2
a 77 62 2
a 62 63 3
a 63 62 3
a 63 78 8
a 78 63 8
a 65 80 6
a 80 65 6
a 65 66 10
a 66 65 10
a 66 81 1
a 81 66 1
a 66 67 7
a 67 66 7
a 67 82 5
a 82 67 5
a 67 68 3
a 68 67 3
a 68 83 8
a 83 68 8
a 68 69 8
a 69 68 8
a 69 84 8
a 84 69 8
a 69 70 6
a 70 69 6
a 70 85 4
a 85 70 4
a 70 71 10
a 71 70 10
a 71 86 1
a 86 71 1
a 71 72 8
a 72 71 8
a 72 87 5
a 87 72 5
a 72 73 4
a 73 72 4
a 73 88 5
a 88 73 5
a 73 74 7
a 74 73 7
a 74 89 1
a 89 74 1
a 74 75 7
a 75 74 7
a 75 90 8
a 90 75 8
a 76 91 3
a 91 76 3
a 76 77 8
a 77 76 8
a 77 92 6
a 92 77 6
a 77 78 10
a 78 77 10
a 78 93 8
a 93 78 8
a 78 79 6
a 79 78 6
a 79 94 6
a 94 79 6
a 79 80 3
a 80 79 3
a 80 81 3
a 81 80 3
a 81 96 5
a 96 81 5
a 81 82 10
a 82 81 10
a 82 97 4
a 97 82 4
a 82 83 10
a 83 82 10
a 83 84 7
a 84 83 7
a 84 99 8
a 99 84 8
a 84 85 6
a 85 84 6
a 85 100 9
a 100 85 9
a 85 86 3
a 86 85 3
a 86 101 6
a 101 86 6
a 86 87 6
a 87 86 6
a 87 102 7
a 102 87 7
a 87 88 5
a 88 87 5
a 88 103 6
a 103 88 6
a 88 89 3
a 89 88 3
a 89 104 10
a 104 89 10
a 89 90 7
a 90 89 7
a 90 105 6
a 105 90 6
a 91 106 5
a 106 91 5
a 91 92 6
a 92 91 6
a 92 107 4
a 107 92 4
a 92 93 7
a 93 92 7
a 93 108 4
a 108 93 4
a 93 94 7
a 94 93 7
a 94 109 3
a 109 94 3
a 96 111 8
a 111 96 8
a 96 97 6
a 97 96 6
a 97 112 1
a 112 97 1
a 99 114 5
a 114 99 5
a 99 100 3
a 100 99 3
a 100 101 6
a 101 100 6
a 101 116 5
a 116 101 5
a 101 102 7
a 102 101 7
a 102 117 9
a 117 102 9
a 102 103 10
a 103 102 10
a 103 118 5
a 118 103 5
a 103 104 4
a 104 103 4
a 104 119 3
a 119 104 3
a 104 105 10
a 105 104 10
a 105 120 6
a 120 105 6
a 106 121 3
a 121 106 3
a 106 107 7
a 107 106 7
a 107 122 4
a 122 107 4
a 107 108 4
a 108 107 4
a 108 123 6
a 123 108 6
a 108 109 3
a 109 108 3
a 109 124 9
a 124 109 9
a 109 110 4
a 110 109 4
a 110 125 1
a 125 110 1
a 110 111 3
a 111 110 3
a 111 126 3
a 126 111 3
a 111 112 4
a 112 111 4
a 112 127 7
a 127 112 7
a 112 113 2
a 113 112 2
a 113 128 4
a 128 113 4
a 113 114 8
a 114 113 8
a 114 129 1
a 129 114 1
a 116 131 10
a 131 116 10
a 116 117 3
a 117 116 3
a 117 132 10
a 132 117 10
a 117 118 4
a 118 117 4
a 118 133 10
a 133 118 10
a 118 119 5
a 119 118 5
a 119 120 7
a 120 119 7
a 120 135 5
a 135 120 5
a 121 136 1
a 136 121 1
a 121 122 8
a 122 121 8
a 122 137 6
a 137 122 6
a 122 123 7
a 123 122 7
a 123 138 4
a 138 123 4
a 123 124 9
a 124 123 9
a 124 139 3
a 139 124 3
a 124 125 10
a 125 124 10
a 125 140 1
a 140 125 1
a 125 126 10
a 126 125 10
a 126 141 2
a 141 126 2
a 126 127 9
a 127 126 9
a 127 142 3
a 142 127 3
a 127 128 5
a 128 127 5
a 128 143 6
a 143 128 6
a 128 129 3
a 129 128 3
a 129 144 5
a 144 129 5
a 129 130 1
a 130 129 1
a 130 145 1
a 145 130 1
a 130 131 9
a 131 130 9
a 131 146 9
a 146 131 9
a 131 132 10
a 132 131 10
a 132 147 5
a 147 132 5
a 132 133 6
a 133 132 6
a 133 148 9
a 148 133 9
a 135 150 10
a 150 135 10
a 136 151 10
a 151 136 10
a 136 137 3
a 137 136 3
a 137 152 3
a 152 137 3
a 137 138 9
a 138 137 9
a 138 153 4
a 153 138 4
a 138 139 8
a 139 138 8
a 139 154 4
a 154 139 4
a 139 140 9
a 140 139 9
a 140 155 5
a 155 140 5
a 140 141 2
a 141 140 2
a 141 156 5
a 156 141 5
a 141 142 9
a 142 141 9
a 142 157 4
a 157 142 4
a 142 143 1
a 143 142 1
a 143 158 6
a 158 143 6
a 143 144 6
a 144 143 6
a 144 159 1
a 159 144 1
a 144 145 5
a 145 144 5
a 145 160 3
a 160 145 3
a 145 146 2
a 146 145 2
a 146 161 8
a 161 146 8
a 146 147 8
a 147 146 8
a 147 162 9
a 162 147 9
a 147 148 7
a 148 147 7
a 148 163 7
a 163 148 7
a 148 149 2
a 149 148 2
a 149 150 9
a 150 149 9
a 150 165 5
a 165 150 5
a 151 166 1
a 166 151 1
a 151 152 8
a 152 151 8
a 152 167 9
a 167 152 9
a 152 153 5
a 153 152 5
a 153 168 10
a 168 153 10
a 153 154 6
a 154 153 6
a 154 169 3
a 169 154 3
a 154 155 7
a 155 154 7
a 155 170 7
a 170 155 7
a 155 156 3
a 156 155 3
a 156 171 3
a 171 156 3
a 156 157 10
a 157 156 10
a 157 172 1
a 172 157 1
a 157 158 7
a 158 157 7
a 158 173 8
a 173 158 8
a 158 159 10
a 159 158 10
a 159 174 5
a 174 159 5
a 159 160 1
a 160 159 1
a 160 175 9
a 175 160 9
a 160 161 10
a 161 160 10
a 161 176 7
a 176 161 7
a 161 162 4
a 162 161 4
a 162 177 4
a 177 162 4
a 162 163 1
a 163 162 1
a 163 178 10
a 178 163 10
a 165 180 3
a 180 165 3
a 166 181 10
a 181 166 10
a 166 167 10
a 167 166 10
a 167 182 3
a 182 167 3
a 167 168 1
a 168 167 1
a 168 183 8
a 183 168 8
a 168 169 8
a 169 168 8
a 169 184 2
a 184 169 2
a 169 170 4
a 170 169 4
a 170 185 8
a 185 170 8
a 170 171 7
a 171 170 7
a 171 186 10
a 186 171 10
a 171 172 3
a 172 171 3
a 172 187 10
a 187 172 10
a 172 173 6
a 173 172 6
a 173 188 10
a 188 173 10
a 173 174 1
a 174 173 1
a 174 189 3
a 189 174 3
a 174 175 5
a 175 174 5
a 175 190 3
a 190 175 3
a 175 176 5
a 176 175 5
a 176 191 7
a 191 176 7
a 176 177 7
a 177 176 7
a 177 192 4
a 192 177 4
a 177 178 6
a 178 177 6
a 178 193 4
a 193 178 4
a 178 179 7
a 179 178 7
a 179 194 3
a 194 179 3
a 179 180 8
a 180 179 8
a 180 195 5
a 195 180 5
a 181 196 6
a 196 181 6
a 181 182 7
a 182 181 7
a 182 197 9
a 197 182 9
a 182 183 9
a 183 182 9
a 183 198 1
a 198 183 1
a 183 184 2
a 184 183 2
a 184 199 4
a 199 184 4
a 184 185 3
a 185 184 3
a 185 200 1
a 200 185 1
a 185 186 10
a 186 185 10
a 186 201 7
a 201 186 7
a 186 187 3
a 187 186 3
a 187 202 9
a 202 187 9
a 187 188 7
a 188 187 7
a 188 203 5
a 203 188 5
a 188 189 9
a 189 188 9
a 189 204 9
a 204 189 9
a 189 190 9
a 190 189 9
a 190 191 2
a 191 190 2
a 191 206 10
a 206 191 10
a 191 192 10
a 192 191 10
a 192 207 6
a 207 192 6
a 192 193 3
a 193 192 3
a 193 208 10
a 208 193 10
a 193 194 7
a 194 193 7
a 194 209 2
a 209 194 2
a 194 195 4
a 195 194 4
a 195 210 2
a 210 195 2
a 196 197 2
a 197 196 2
a 197 212 9
a 212 197 9
a 197 198 2
a 198 197 2
a 198 213 6
a 213 198 6
a 198 199 5
a 199 198 5
a 199 214 5
a 214 199 5
a 199 200 3
a 200 199 3
a 200 215 2
a 215 200 2
a 200 201 7
a 201 200 7
a 201 216 2
a 216 201 2
a 201 202 6
a 202 201 6
a 202 217 3
a 217 202 3
a 202 203 1
a 203 202 1
a 203 218 7
a 218 203 7
a 203 204 5
a 204 203 5
a 204 219 9
a 219 204 9
a 206 221 8
a 221 206 8
a 206 207 10
a 207 206 10
a 207 222 2
a 222 207 2
a 207 208 7
a 208 207 7
a 208 223 7
a 223 208 7
a 208 209 8
a 209 208 8
a 209 224 1
a 224 209 1
a 209 210 7
a 210 209 7
a 210 225 5
a 225 210 5
a 212 213 5
a 213 212 5
a 213 214 3
a 214 213 3
a 214 215 9
a 215 214 9
a 215 216 2
a 216 215 2
a 216 217 10
a 217 216 10
a 217 218 2
a 218 217 2
a 218 219 10
a 219 218 10
a 219 220 4
a 220 219 4
a 220 221 10
a 221 220 10
a 221 222 4
a 222 221 4
a 222 223 8
a 223 222 8
a 223 224 5
a 224 223 5
a 224 225 6
a 225 224 6
